solution status: optimal solution found
objective value:                     153790.781606774
d11(0,0)                                            1 	(obj:0)
d11(1,1)                                            1 	(obj:0)
d11(1,2)                                            1 	(obj:0)
d11(1,3)                                            1 	(obj:0)
d11(2,4)                                            1 	(obj:0)
d11(2,5)                                            1 	(obj:0)
d11(2,7)                                            1 	(obj:0)
d11(2,8)                                            1 	(obj:0)
d11(2,10)                                           1 	(obj:0)
d11(2,11)                                           1 	(obj:0)
d11(3,13)                                           1 	(obj:0)
d11(3,14)                                           1 	(obj:0)
d11(3,16)                                           1 	(obj:0)
d11(3,19)                                           1 	(obj:0)
d11(3,20)                                           1 	(obj:0)
d11(3,22)                                           1 	(obj:0)
d11(3,23)                                           1 	(obj:0)
d11(3,25)                                           1 	(obj:0)
d11(3,26)                                           1 	(obj:0)
d11(3,28)                                           1 	(obj:0)
d11(3,31)                                           1 	(obj:0)
d11(3,32)                                           1 	(obj:0)
d11(3,34)                                           1 	(obj:0)
d11(3,37)                                           1 	(obj:0)
d11(3,38)                                           1 	(obj:0)
d12(2,6)                                            1 	(obj:0)
d12(2,9)                                            1 	(obj:0)
d12(3,15)                                           1 	(obj:0)
d12(3,18)                                           1 	(obj:0)
d12(3,21)                                           1 	(obj:0)
d12(3,24)                                           1 	(obj:0)
d12(3,27)                                           1 	(obj:0)
d12(3,30)                                           1 	(obj:0)
d12(3,33)                                           1 	(obj:0)
d12(3,36)                                           1 	(obj:0)
d12(3,39)                                           1 	(obj:0)
d21(2,4)                                            1 	(obj:0)
d21(3,13)                                           1 	(obj:0)
d21(3,14)                                           1 	(obj:0)
d21(3,15)                                           1 	(obj:0)
d21(3,16)                                           1 	(obj:0)
d21(3,17)                                           1 	(obj:0)
d21(3,19)                                           1 	(obj:0)
d21(3,22)                                           1 	(obj:0)
d21(3,23)                                           1 	(obj:0)
d21(3,25)                                           1 	(obj:0)
d21(3,31)                                           1 	(obj:0)
y2(3,24)                             960.592982999987 	(obj:0)
y2(3,27)                             960.592982999987 	(obj:0)
y2(3,30)                             960.592982999987 	(obj:0)
y2(3,33)                             960.592982999987 	(obj:0)
y2(3,36)                             960.592982999987 	(obj:0)
y2(3,39)                             960.592982999987 	(obj:0)
STE(1,1)                             5908.90629941803 	(obj:0)
STE(0,0)                                        12600 	(obj:0)
STE(1,2)                             6905.67230275132 	(obj:0)
STE(1,3)                              8123.1245060847 	(obj:0)
STE(2,4)                             2878.67066281672 	(obj:0)
STE(2,5)                             3875.43666615001 	(obj:0)
STE(2,6)                             4900.90629941803 	(obj:0)
STE(2,7)                             3875.43666615001 	(obj:0)
STE(2,8)                              4872.2026694833 	(obj:0)
STE(2,9)                             5897.67230275132 	(obj:0)
STE(2,10)                            5092.88886948339 	(obj:0)
STE(2,11)                            6089.65487281668 	(obj:0)
STE(2,12)                             7115.1245060847 	(obj:0)
STE(3,13)                            873.904659483372 	(obj:0)
STE(3,14)                            1870.67066281672 	(obj:0)
STE(3,15)                            2783.23399666671 	(obj:0)
STE(3,16)                            1870.67066281666 	(obj:0)
STE(3,17)                            2867.43666615001 	(obj:0)
STE(3,18)                                        3780 	(obj:0)
STE(3,19)                            2896.14029608468 	(obj:0)
STE(3,20)                            3892.90629941797 	(obj:0)
STE(3,21)                            4805.46963326802 	(obj:0)
STE(3,22)                            1870.67066281674 	(obj:0)
STE(3,23)                            2867.43666614995 	(obj:0)
STE(3,24)                                        3780 	(obj:0)
STE(3,25)                            2867.43666614995 	(obj:0)
STE(3,26)                             3864.2026694833 	(obj:0)
STE(3,27)                            4776.76600333329 	(obj:0)
STE(3,28)                            3892.90629941797 	(obj:0)
STE(3,29)                            4889.67230275132 	(obj:0)
STE(3,30)                            5802.23563660131 	(obj:0)
STE(3,31)                            3088.12286615004 	(obj:0)
STE(3,32)                            4084.88886948333 	(obj:0)
STE(3,33)                            4997.45220333338 	(obj:0)
STE(3,34)                            4084.88886948333 	(obj:0)
STE(3,35)                            5081.65487281668 	(obj:0)
STE(3,36)                            5994.21820666667 	(obj:0)
STE(3,37)                            5110.35850275135 	(obj:0)
STE(3,38)                            6107.12450608464 	(obj:0)
STE(3,39)                            7019.68783993469 	(obj:0)
y1(3,25)                             897.089403000015 	(obj:0)
y1(3,28)                             897.089403000015 	(obj:0)
y1(3,31)                             897.089403000015 	(obj:0)
y1(3,34)                             897.089403000015 	(obj:0)
y1(3,37)                             897.089403000015 	(obj:0)
BG(3)                                86.4946466752399 	(obj:10)
AVE(1)                               3199.95851117552 	(obj:0)
AVE(2)                               3265.15049132519 	(obj:0)
AVE(3)                               3291.35535332476 	(obj:0)
WG(1)                                3199.95851117552 	(obj:10)
WG(2)                                 3265.1504913256 	(obj:10)
WG(3)                                3291.35535332476 	(obj:10)
BG(1)                                 4481.6618230324 	(obj:10)
BG(2)                                1054.45733514499 	(obj:10)
y1(1,1)                              5114.78433052377 	(obj:0)
y1(1,2)                              4217.69492752381 	(obj:0)
y1(1,3)                              3121.98794452377 	(obj:0)
y1(2,4)                              1820.01207294118 	(obj:0)
y1(2,5)                              922.922669941217 	(obj:0)
y1(2,7)                              1820.01207294118 	(obj:0)
y1(2,8)                              922.922669941217 	(obj:0)
y1(2,10)                             1820.01207294118 	(obj:0)
y1(2,11)                             922.922669941217 	(obj:0)
y1(3,13)                             897.089403000015 	(obj:0)
y1(3,16)                             897.089403000015 	(obj:0)
y1(3,19)                             897.089403000015 	(obj:0)
y1(3,22)                             897.089402999945 	(obj:0)
y2(3,15)                             960.592982999987 	(obj:0)
y2(3,18)                             960.592982999987 	(obj:0)
y2(3,21)                             960.592982999987 	(obj:0)
